1309814
0,82,24,62,2,89,23,108,9,65,76,8,36,25,40,37,71,56,74,85,26,68,69,13,38,30,48,10,88,90,96,46,103,57,53,101,99,104,98,70,49,17,75,72,86,61,18,41,32,77,107,105,59,54,67,39,7,27,35,11,64,87,6,95,92,12,20,47,79,16,52,14,21,63,22,78,66,3,91,73,55,102,19,43,42,84,60,29,5,94,31,50,83,58,1,80,45,93,106,15,28,51,33,44,81,100,97,34,4,0